p cnf 24 31
-2 10 5 0
-2 9 3 5 0
2 -5 0
2 -10 -3 0
2 -9 -10 0
3 -17 -4 0
3 -15 -16 -17 0
-3 17 0
-3 16 4 0
-3 15 4 0
4 -18 -19 0
-4 18 0
-4 19 0
-5 12 6 7 0
-5 11 6 7 0
5 -7 0
5 -6 0
5 -11 -12 0
6 -20 -21 -22 -23 0
-6 23 0
-6 20 0
-6 22 0
-6 21 0
-7 9 13 0
-7 8 14 0
-7 9 14 0
-7 8 13 0
7 -8 -9 0
7 -13 -14 0
-24 0
-2 0

